(declare-datatypes 
	(T_n__0) 
	(
		(CList_m_GetNthPoly_8214565720323784707 
			(Cons_m_GetNthPoly_8214565720323784706 (F_T_n__00_F T_n__0) 
			(F_CList_m_GetNthPoly_82145657203237847071_F (CList_m_GetNthPoly_8214565720323784707 T_n__0))) 
			(Nil_m_GetNthPoly_8214565720323784705 ) 
		) 
	)
)
(declare-const x_n__6989586621679015463 Int)(declare-const ds2_n__7205759403792800112 (CList_m_GetNthPoly_8214565720323784707 Int))(declare-const fs?_n__6 (CList_m_GetNthPoly_8214565720323784707 Int))(declare-const fs?_n__7 Int)(assert (= fs?_n__6 (Cons_m_GetNthPoly_8214565720323784706 x_n__6989586621679015463 ds2_n__7205759403792800112)))(assert (or true false))
